Route #1: 34 46 52 27 29 45
Route #2: 48 37 20 60 36 47 21
Route #3: 5 15 57 13 54 19 35 8
Route #4: 14 59 11 53 7
Route #5: 26 12 40 17 51 6
Route #6: 33 63 16 3 44 32 39
Route #7: 58 38 10 31 9
Route #8: 50 25 55 18 24 49 56 23
Route #9: 1 43 41 42 64 22 61
Route #10: 2 62 28 30 4
Cost 842